;symbolic execution tree
(push)
(assert (le x1 siena.AttributeValue))
(check-sat)
(push)
(assert (le x4 siena.AttributeValue))
(check-sat)
(push)
(assert (le x5 java.util.Set))
(check-sat)
(push)
(assert (le x10 siena.OpCov))
(check-sat)
(pop)
(push)
(assert (not (le x10 siena.OpCov)))
(check-sat)
(pop)
(push)
(assert (le x11 java.lang.String))
(check-sat)
(push)
(assert (le x15 java.lang.StringBuilder))
(check-sat)
(pop)
(push)
(assert (not (le x15 java.lang.StringBuilder)))
(check-sat)
(pop)
(pop)
(push)
(assert (not (le x11 java.lang.String)))
(check-sat)
(pop)
(push)
(assert (le x10 siena.HierarchicalDispatcher))
(check-sat)
(pop)
(push)
(assert (not (le x10 siena.HierarchicalDispatcher)))
(check-sat)
(push)
(assert (le x1 siena.AttributeValue))
(check-sat)
(pop)
(push)
(assert (not (le x1 siena.AttributeValue)))
(check-sat)
(pop)
(pop)
(pop)
(push)
(assert (not (le x5 java.util.Set)))
(check-sat)
(pop)
(pop)
(push)
(assert (not (le x4 siena.AttributeValue)))
(check-sat)
(push)
(assert (le x4 siena.AttributeValue))
(check-sat)
(pop)
(push)
(assert (not (le x4 siena.AttributeValue)))
(check-sat)
(push)
(assert (le x1 siena.AttributeValue))
(check-sat)
(pop)
(push)
(assert (not (le x1 siena.AttributeValue)))
(check-sat)
(pop)
(pop)
(push)
(assert (le x12 java.lang.String))
(check-sat)
(push)
(assert (le x5 java.lang.String))
(check-sat)
(pop)
(push)
(assert (not (le x5 java.lang.String)))
(check-sat)
(pop)
(pop)
(push)
(assert (not (le x12 java.lang.String)))
(check-sat)
(pop)
(pop)
(push)
(assert (le x9 java.lang.String))
(check-sat)
(push)
(assert (le x3 siena.AttributeConstraint))
(check-sat)
(push)
(assert (le x12 java.util.Set))
(check-sat)
(pop)
(push)
(assert (not (le x12 java.util.Set)))
(check-sat)
(pop)
(push)
(assert (le x11 siena.Filter))
(check-sat)
(pop)
(push)
(assert (not (le x11 siena.Filter)))
(check-sat)
(pop)
(pop)
(push)
(assert (not (le x3 siena.AttributeConstraint)))
(check-sat)
(push)
(assert (le x4 java.net.InetAddress))
(check-sat)
(pop)
(push)
(assert (not (le x4 java.net.InetAddress)))
(check-sat)
(pop)
(pop)
(pop)
(push)
(assert (not (le x9 java.lang.String)))
(check-sat)
(pop)
(push)
(assert (le x9 java.lang.Byte))
(check-sat)
(pop)
(push)
(assert (not (le x9 java.lang.Byte)))
(check-sat)
(push)
(assert (le x5 java.lang.String))
(check-sat)
(push)
(assert (le x8 java.lang.String))
(check-sat)
(pop)
(push)
(assert (not (le x8 java.lang.String)))
(check-sat)
(pop)
(push)
(assert (le x1 siena.AttributeValue))
(check-sat)
(pop)
(push)
(assert (not (le x1 siena.AttributeValue)))
(check-sat)
(pop)
(push)
(assert (le x5 java.lang.String))
(check-sat)
(pop)
(push)
(assert (not (le x5 java.lang.String)))
(check-sat)
(pop)
(push)
(assert (le x12 siena.Filter))
(check-sat)
(push)
(assert (le x8 siena.ByteBuf))
(check-sat)
(pop)
(push)
(assert (not (le x8 siena.ByteBuf)))
(check-sat)
(pop)
(pop)
(push)
(assert (not (le x12 siena.Filter)))
(check-sat)
(pop)
(pop)
(push)
(assert (not (le x5 java.lang.String)))
(check-sat)
(push)
(assert (le x7 java.lang.String))
(check-sat)
(pop)
(push)
(assert (not (le x7 java.lang.String)))
(check-sat)
(pop)
(push)
(assert (le x2 java.lang.String))
(check-sat)
(pop)
(push)
(assert (not (le x2 java.lang.String)))
(check-sat)
(pop)
(push)
(assert (le x4 siena.Tokenizer))
(check-sat)
(pop)
(push)
(assert (not (le x4 siena.Tokenizer)))
(check-sat)
(pop)
(push)
(assert (le x11 siena.Event))
(check-sat)
(push)
(assert (le x13 siena.HierarchicalDispatcher))
(check-sat)
(pop)
(push)
(assert (not (le x13 siena.HierarchicalDispatcher)))
(check-sat)
(pop)
(push)
(assert (le x3 siena.HierarchicalDispatcher))
(check-sat)
(pop)
(push)
(assert (not (le x3 siena.HierarchicalDispatcher)))
(check-sat)
(pop)
(pop)
(push)
(assert (not (le x11 siena.Event)))
(check-sat)
(pop)
(push)
(assert (le x6 siena.OpCov))
(check-sat)
(push)
(assert (le x0 siena.Tokenizer))
(check-sat)
(pop)
(push)
(assert (not (le x0 siena.Tokenizer)))
(check-sat)
(pop)
(pop)
(push)
(assert (not (le x6 siena.OpCov)))
(check-sat)
(pop)
(pop)
(pop)
(push)
(assert (le x10 siena.Notifiable))
(check-sat)
(push)
(assert (le x3 java.lang.String))
(check-sat)
(pop)
(push)
(assert (not (le x3 java.lang.String)))
(check-sat)
(pop)
(push)
(assert (le x4 java.lang.String))
(check-sat)
(pop)
(push)
(assert (not (le x4 java.lang.String)))
(check-sat)
(push)
(assert (le x11 siena.AttributeConstraint))
(check-sat)
(push)
(assert (le x1 siena.AttributeValue))
(check-sat)
(pop)
(push)
(assert (not (le x1 siena.AttributeValue)))
(check-sat)
(pop)
(pop)
(push)
(assert (not (le x11 siena.AttributeConstraint)))
(check-sat)
(pop)
(pop)
(push)
(assert (le x10 siena.Notifiable))
(check-sat)
(pop)
(push)
(assert (not (le x10 siena.Notifiable)))
(check-sat)
(pop)
(push)
(assert (le x5 siena.ByteBuf))
(check-sat)
(push)
(assert (le x9 siena.ByteBuf))
(check-sat)
(pop)
(push)
(assert (not (le x9 siena.ByteBuf)))
(check-sat)
(pop)
(push)
(assert (le x7 siena.Notifiable))
(check-sat)
(pop)
(push)
(assert (not (le x7 siena.Notifiable)))
(check-sat)
(push)
(assert (le x8 java.lang.String))
(check-sat)
(pop)
(push)
(assert (not (le x8 java.lang.String)))
(check-sat)
(pop)
(pop)
(pop)
(push)
(assert (not (le x5 siena.ByteBuf)))
(check-sat)
(push)
(assert (le x9 java.util.Set))
(check-sat)
(pop)
(push)
(assert (not (le x9 java.util.Set)))
(check-sat)
(pop)
(pop)
(push)
(assert (le x8 java.lang.String))
(check-sat)
(pop)
(push)
(assert (not (le x8 java.lang.String)))
(check-sat)
(push)
(assert (le x15 java.lang.String))
(check-sat)
(pop)
(push)
(assert (not (le x15 java.lang.String)))
(check-sat)
(pop)
(push)
(assert (le x11 java.lang.String))
(check-sat)
(pop)
(push)
(assert (not (le x11 java.lang.String)))
(check-sat)
(pop)
(pop)
(push)
(assert (le x1 siena.AttributeValue))
(check-sat)
(push)
(assert (le x15 siena.Tokenizer))
(check-sat)
(pop)
(push)
(assert (not (le x15 siena.Tokenizer)))
(check-sat)
(pop)
(pop)
(push)
(assert (not (le x1 siena.AttributeValue)))
(check-sat)
(pop)
(push)
(assert (le x3 siena.AttributeConstraint))
(check-sat)
(pop)
(push)
(assert (not (le x3 siena.AttributeConstraint)))
(check-sat)
(push)
(assert (le x12 java.net.InetAddress))
(check-sat)
(pop)
(push)
(assert (not (le x12 java.net.InetAddress)))
(check-sat)
(pop)
(pop)
(pop)
(push)
(assert (not (le x10 siena.Notifiable)))
(check-sat)
(push)
(assert (le x7 java.lang.String))
(check-sat)
(pop)
(push)
(assert (not (le x7 java.lang.String)))
(check-sat)
(pop)
(pop)
(pop)
(push)
(assert (not (le x1 siena.AttributeValue)))
(check-sat)
(push)
(assert (le x2 siena.ByteBuf))
(check-sat)
(push)
(assert (le x12 java.io.PrintStream))
(check-sat)
(pop)
(push)
(assert (not (le x12 java.io.PrintStream)))
(check-sat)
(pop)
(push)
(assert (le x1 siena.AttributeValue))
(check-sat)
(pop)
(push)
(assert (not (le x1 siena.AttributeValue)))
(check-sat)
(push)
(assert (le x10 java.lang.String))
(check-sat)
(pop)
(push)
(assert (not (le x10 java.lang.String)))
(check-sat)
(pop)
(push)
(assert (le x15 java.net.ServerSocket))
(check-sat)
(pop)
(push)
(assert (not (le x15 java.net.ServerSocket)))
(check-sat)
(pop)
(pop)
(push)
(assert (le x6 siena.AttributeValue))
(check-sat)
(push)
(assert (le x6 siena.AttributeValue))
(check-sat)
(push)
(assert (le x3 java.lang.String))
(check-sat)
(pop)
(push)
(assert (not (le x3 java.lang.String)))
(check-sat)
(pop)
(push)
(assert (le x11 java.io.PrintStream))
(check-sat)
(pop)
(push)
(assert (not (le x11 java.io.PrintStream)))
(check-sat)
(pop)
(pop)
(push)
(assert (not (le x6 siena.AttributeValue)))
(check-sat)
(pop)
(push)
(assert (le x0 java.lang.String))
(check-sat)
(pop)
(push)
(assert (not (le x0 java.lang.String)))
(check-sat)
(push)
(assert (le x3 java.util.Set))
(check-sat)
(pop)
(push)
(assert (not (le x3 java.util.Set)))
(check-sat)
(pop)
(pop)
(pop)
(push)
(assert (not (le x6 siena.AttributeValue)))
(check-sat)
(push)
(assert (le x10 siena.Tokenizer))
(check-sat)
(pop)
(push)
(assert (not (le x10 siena.Tokenizer)))
(check-sat)
(push)
(assert (le x4 java.lang.String))
(check-sat)
(pop)
(push)
(assert (not (le x4 java.lang.String)))
(check-sat)
(pop)
(pop)
(pop)
(push)
(assert (le x4 java.lang.String))
(check-sat)
(pop)
(push)
(assert (not (le x4 java.lang.String)))
(check-sat)
(pop)
(push)
(assert (le x10 java.lang.String))
(check-sat)
(pop)
(push)
(assert (not (le x10 java.lang.String)))
(check-sat)
(push)
(assert (le x9 java.lang.StringBuilder))
(check-sat)
(push)
(assert (le x2 siena.ByteBuf))
(check-sat)
(pop)
(push)
(assert (not (le x2 siena.ByteBuf)))
(check-sat)
(pop)
(pop)
(push)
(assert (not (le x9 java.lang.StringBuilder)))
(check-sat)
(push)
(assert (le x13 siena.Tokenizer))
(check-sat)
(pop)
(push)
(assert (not (le x13 siena.Tokenizer)))
(check-sat)
(pop)
(pop)
(pop)
(push)
(assert (le x14 siena.Tokenizer))
(check-sat)
(pop)
(push)
(assert (not (le x14 siena.Tokenizer)))
(check-sat)
(pop)
(pop)
(push)
(assert (not (le x2 siena.ByteBuf)))
(check-sat)
(pop)
(push)
(assert (le x8 java.lang.String))
(check-sat)
(pop)
(push)
(assert (not (le x8 java.lang.String)))
(check-sat)
(push)
(assert (le x5 java.lang.String))
(check-sat)
(push)
(assert (le x13 java.lang.String))
(check-sat)
(pop)
(push)
(assert (not (le x13 java.lang.String)))
(check-sat)
(pop)
(pop)
(push)
(assert (not (le x5 java.lang.String)))
(check-sat)
(push)
(assert (le x5 java.lang.String))
(check-sat)
(pop)
(push)
(assert (not (le x5 java.lang.String)))
(check-sat)
(pop)
(pop)
(push)
(assert (le x2 java.lang.StringBuilder))
(check-sat)
(push)
(assert (le x1 siena.AttributeValue))
(check-sat)
(pop)
(push)
(assert (not (le x1 siena.AttributeValue)))
(check-sat)
(pop)
(push)
(assert (le x12 java.lang.String))
(check-sat)
(pop)
(push)
(assert (not (le x12 java.lang.String)))
(check-sat)
(pop)
(pop)
(push)
(assert (not (le x2 java.lang.StringBuilder)))
(check-sat)
(pop)
(push)
(assert (le x0 java.lang.String))
(check-sat)
(push)
(assert (le x14 java.lang.String))
(check-sat)
(pop)
(push)
(assert (not (le x14 java.lang.String)))
(check-sat)
(pop)
(pop)
(push)
(assert (not (le x0 java.lang.String)))
(check-sat)
(pop)
(push)
(assert (le x0 java.io.PrintStream))
(check-sat)
(pop)
(push)
(assert (not (le x0 java.io.PrintStream)))
(check-sat)
(pop)
(push)
(assert (le x11 java.lang.StringBuilder))
(check-sat)
(push)
(assert (le x1 siena.AttributeValue))
(check-sat)
(pop)
(push)
(assert (not (le x1 siena.AttributeValue)))
(check-sat)
(push)
(assert (le x10 java.lang.String))
(check-sat)
(pop)
(push)
(assert (not (le x10 java.lang.String)))
(check-sat)
(pop)
(pop)
(pop)
(push)
(assert (not (le x11 java.lang.StringBuilder)))
(check-sat)
(pop)
(push)
(assert (le x14 java.lang.String))
(check-sat)
(pop)
(push)
(assert (not (le x14 java.lang.String)))
(check-sat)
(push)
(assert (le x9 java.lang.String))
(check-sat)
(push)
(assert (le x9 java.lang.String))
(check-sat)
(pop)
(push)
(assert (not (le x9 java.lang.String)))
(check-sat)
(pop)
(pop)
(push)
(assert (not (le x9 java.lang.String)))
(check-sat)
(push)
(assert (le x8 java.lang.String))
(check-sat)
(pop)
(push)
(assert (not (le x8 java.lang.String)))
(check-sat)
(pop)
(pop)
(pop)
(push)
(assert (le x15 java.lang.String))
(check-sat)
(push)
(assert (le x9 java.lang.String))
(check-sat)
(pop)
(push)
(assert (not (le x9 java.lang.String)))
(check-sat)
(pop)
(pop)
(push)
(assert (not (le x15 java.lang.String)))
(check-sat)
(pop)
(push)
(assert (le x5 java.lang.String))
(check-sat)
(push)
(assert (le x5 java.lang.String))
(check-sat)
(push)
(assert (le x3 java.lang.String))
(check-sat)
(pop)
(push)
(assert (not (le x3 java.lang.String)))
(check-sat)
(pop)
(pop)
(push)
(assert (not (le x5 java.lang.String)))
(check-sat)
(pop)
(pop)
(push)
(assert (not (le x5 java.lang.String)))
(check-sat)
(push)
(assert (le x7 java.lang.String))
(check-sat)
(pop)
(push)
(assert (not (le x7 java.lang.String)))
(check-sat)
(push)
(assert (le x13 siena.Filter))
(check-sat)
(pop)
(push)
(assert (not (le x13 siena.Filter)))
(check-sat)
(pop)
(pop)
(pop)
(pop)
(pop)
